min: c;

c = 3.73657873279791 * u2_t7_h3 + 3.22313811146948 * u2_t7_h4 + 3.15095385321153 * u2_t2_h5 + 3.15095385321153 * u2_t3_h5 + 3.15095385321153 * u2_t7_h5 + 4.09587938346006 * u2_t2_h6 + 4.09587938346006 * u2_t3_h6 + 4.09587938346006 * u2_t4_h6 + 4.09587938346006 * u2_t7_h6 + 4.09587938346006 * u2_t10_h6 + 4.37609117430371 * u2_t2_h7 + 4.37609117430371 * u2_t3_h7 + 4.37609117430371 * u2_t4_h7 + 4.37609117430371 * u2_t7_h7 + 4.37609117430371 * u2_t10_h7 + 4.95914953990726 * u2_t2_h8 + 4.95914953990726 * u2_t3_h8 + 4.95914953990726 * u2_t4_h8 + 4.95914953990726 * u2_t7_h8 + 4.95914953990726 * u2_t10_h8 + 4.58348917898439 * u2_t2_h9 + 4.58348917898439 * u2_t3_h9 + 4.58348917898439 * u2_t4_h9 + 4.58348917898439 * u2_t7_h9 + 4.58348917898439 * u2_t10_h9 + 5.79346166764669 * u2_t2_h10 + 5.79346166764669 * u2_t3_h10 + 5.79346166764669 * u2_t4_h10 + 5.79346166764669 * u2_t7_h10 + 5.79346166764669 * u2_t10_h10 + 3.69434948859594 * u2_t1_h11 + 3.69434948859594 * u2_t2_h11 + 3.69434948859594 * u2_t3_h11 + 3.69434948859594 * u2_t4_h11 + 3.69434948859594 * u2_t7_h11 + 3.69434948859594 * u2_t10_h11 + 6.14565914943632 * u2_t1_h12 + 6.14565914943632 * u2_t3_h12 + 6.14565914943632 * u2_t4_h12 + 6.14565914943632 * u2_t7_h12 + 4.49925183728938 * u2_t1_h13 + 4.49925183728938 * u2_t3_h13 + 4.49925183728938 * u2_t4_h13 + 4.49925183728938 * u2_t7_h13 + 4.49925183728938 * u2_t9_h13 + 5.09729702322129 * u2_t1_h14 + 5.09729702322129 * u2_t3_h14 + 5.09729702322129 * u2_t4_h14 + 5.09729702322129 * u2_t7_h14 + 5.09729702322129 * u2_t9_h14 + 6.3499732614184 * u2_t1_h15 + 6.3499732614184 * u2_t3_h15 + 6.3499732614184 * u2_t4_h15 + 6.3499732614184 * u2_t7_h15 + 6.3499732614184 * u2_t9_h15 + 5.6820029228977 * u2_t1_h16 + 5.6820029228977 * u2_t3_h16 + 5.6820029228977 * u2_t4_h16 + 5.6820029228977 * u2_t7_h16 + 5.6820029228977 * u2_t9_h16 + 5.92594576570882 * u2_t1_h17 + 5.92594576570882 * u2_t3_h17 + 5.92594576570882 * u2_t4_h17 + 5.92594576570882 * u2_t7_h17 + 5.92594576570882 * u2_t9_h17 + 6.35569015297611 * u2_t1_h18 + 6.35569015297611 * u2_t3_h18 + 6.35569015297611 * u2_t4_h18 + 6.35569015297611 * u2_t6_h18 + 6.35569015297611 * u2_t7_h18 + 5.47307725077287 * u2_t1_h19 + 5.47307725077287 * u2_t3_h19 + 5.47307725077287 * u2_t4_h19 + 5.47307725077287 * u2_t5_h19 + 5.47307725077287 * u2_t6_h19 + 5.47307725077287 * u2_t7_h19 + 5.52474535299687 * u2_t1_h20 + 5.52474535299687 * u2_t3_h20 + 5.52474535299687 * u2_t4_h20 + 5.52474535299687 * u2_t6_h20 + 5.52474535299687 * u2_t7_h20 + 5.63233579101071 * u2_t1_h21 + 5.63233579101071 * u2_t3_h21 + 5.63233579101071 * u2_t6_h21 + 5.63233579101071 * u2_t7_h21 + 5.63233579101071 * u2_t8_h21 + 5.16627735041401 * u2_t1_h22 + 5.16627735041401 * u2_t3_h22 + 5.16627735041401 * u2_t7_h22 + 5.16627735041401 * u2_t8_h22 + 5.72798505019054 * u2_t3_h23 + 5.72798505019054 * u2_t7_h23 + 5.72798505019054 * u2_t8_h23;
0 <= u2_t1_h11 <= 1;
0 <= u2_t1_h12 <= 1;
0 <= u2_t1_h13 <= 1;
0 <= u2_t1_h14 <= 1;
0 <= u2_t1_h15 <= 1;
0 <= u2_t1_h16 <= 1;
0 <= u2_t1_h17 <= 1;
0 <= u2_t1_h18 <= 1;
0 <= u2_t1_h19 <= 1;
0 <= u2_t1_h20 <= 1;
0 <= u2_t1_h21 <= 1;
0 <= u2_t1_h22 <= 1;
u2_t1_h11 + u2_t1_h12 + u2_t1_h13 + u2_t1_h14 + u2_t1_h15 + u2_t1_h16 + u2_t1_h17 + u2_t1_h18 + u2_t1_h19 + u2_t1_h20 + u2_t1_h21 + u2_t1_h22 = 2;
0 <= u2_t2_h5 <= 1;
0 <= u2_t2_h6 <= 1;
0 <= u2_t2_h7 <= 1;
0 <= u2_t2_h8 <= 1;
0 <= u2_t2_h9 <= 1;
0 <= u2_t2_h10 <= 1;
0 <= u2_t2_h11 <= 1;
u2_t2_h5 + u2_t2_h6 + u2_t2_h7 + u2_t2_h8 + u2_t2_h9 + u2_t2_h10 + u2_t2_h11 = 2;
0 <= u2_t3_h5 <= 1;
0 <= u2_t3_h6 <= 1;
0 <= u2_t3_h7 <= 1;
0 <= u2_t3_h8 <= 1;
0 <= u2_t3_h9 <= 1;
0 <= u2_t3_h10 <= 1;
0 <= u2_t3_h11 <= 1;
0 <= u2_t3_h12 <= 1;
0 <= u2_t3_h13 <= 1;
0 <= u2_t3_h14 <= 1;
0 <= u2_t3_h15 <= 1;
0 <= u2_t3_h16 <= 1;
0 <= u2_t3_h17 <= 1;
0 <= u2_t3_h18 <= 1;
0 <= u2_t3_h19 <= 1;
0 <= u2_t3_h20 <= 1;
0 <= u2_t3_h21 <= 1;
0 <= u2_t3_h22 <= 1;
0 <= u2_t3_h23 <= 1;
u2_t3_h5 + u2_t3_h6 + u2_t3_h7 + u2_t3_h8 + u2_t3_h9 + u2_t3_h10 + u2_t3_h11 + u2_t3_h12 + u2_t3_h13 + u2_t3_h14 + u2_t3_h15 + u2_t3_h16 + u2_t3_h17 + u2_t3_h18 + u2_t3_h19 + u2_t3_h20 + u2_t3_h21 + u2_t3_h22 + u2_t3_h23 = 1;
0 <= u2_t4_h6 <= 1;
0 <= u2_t4_h7 <= 1;
0 <= u2_t4_h8 <= 1;
0 <= u2_t4_h9 <= 1;
0 <= u2_t4_h10 <= 1;
0 <= u2_t4_h11 <= 1;
0 <= u2_t4_h12 <= 1;
0 <= u2_t4_h13 <= 1;
0 <= u2_t4_h14 <= 1;
0 <= u2_t4_h15 <= 1;
0 <= u2_t4_h16 <= 1;
0 <= u2_t4_h17 <= 1;
0 <= u2_t4_h18 <= 1;
0 <= u2_t4_h19 <= 1;
0 <= u2_t4_h20 <= 1;
u2_t4_h6 + u2_t4_h7 + u2_t4_h8 + u2_t4_h9 + u2_t4_h10 + u2_t4_h11 + u2_t4_h12 + u2_t4_h13 + u2_t4_h14 + u2_t4_h15 + u2_t4_h16 + u2_t4_h17 + u2_t4_h18 + u2_t4_h19 + u2_t4_h20 = 3;
0 <= u2_t5_h19 <= 1;
u2_t5_h19 = 1;
0 <= u2_t6_h18 <= 1;
0 <= u2_t6_h19 <= 1;
0 <= u2_t6_h20 <= 1;
0 <= u2_t6_h21 <= 1;
u2_t6_h18 + u2_t6_h19 + u2_t6_h20 + u2_t6_h21 = 2;
0 <= u2_t7_h3 <= 1;
0 <= u2_t7_h4 <= 1;
0 <= u2_t7_h5 <= 1;
0 <= u2_t7_h6 <= 1;
0 <= u2_t7_h7 <= 1;
0 <= u2_t7_h8 <= 1;
0 <= u2_t7_h9 <= 1;
0 <= u2_t7_h10 <= 1;
0 <= u2_t7_h11 <= 1;
0 <= u2_t7_h12 <= 1;
0 <= u2_t7_h13 <= 1;
0 <= u2_t7_h14 <= 1;
0 <= u2_t7_h15 <= 1;
0 <= u2_t7_h16 <= 1;
0 <= u2_t7_h17 <= 1;
0 <= u2_t7_h18 <= 1;
0 <= u2_t7_h19 <= 1;
0 <= u2_t7_h20 <= 1;
0 <= u2_t7_h21 <= 1;
0 <= u2_t7_h22 <= 1;
0 <= u2_t7_h23 <= 1;
u2_t7_h3 + u2_t7_h4 + u2_t7_h5 + u2_t7_h6 + u2_t7_h7 + u2_t7_h8 + u2_t7_h9 + u2_t7_h10 + u2_t7_h11 + u2_t7_h12 + u2_t7_h13 + u2_t7_h14 + u2_t7_h15 + u2_t7_h16 + u2_t7_h17 + u2_t7_h18 + u2_t7_h19 + u2_t7_h20 + u2_t7_h21 + u2_t7_h22 + u2_t7_h23 = 3;
0 <= u2_t8_h21 <= 1;
0 <= u2_t8_h22 <= 1;
0 <= u2_t8_h23 <= 1;
u2_t8_h21 + u2_t8_h22 + u2_t8_h23 = 2;
0 <= u2_t9_h13 <= 1;
0 <= u2_t9_h14 <= 1;
0 <= u2_t9_h15 <= 1;
0 <= u2_t9_h16 <= 1;
0 <= u2_t9_h17 <= 1;
u2_t9_h13 + u2_t9_h14 + u2_t9_h15 + u2_t9_h16 + u2_t9_h17 = 1;
0 <= u2_t10_h6 <= 1;
0 <= u2_t10_h7 <= 1;
0 <= u2_t10_h8 <= 1;
0 <= u2_t10_h9 <= 1;
0 <= u2_t10_h10 <= 1;
0 <= u2_t10_h11 <= 1;
u2_t10_h6 + u2_t10_h7 + u2_t10_h8 + u2_t10_h9 + u2_t10_h10 + u2_t10_h11 = 2;
